!CASSCF def2-TZVP def2-TZVP/C
!MOREAD RIJCOSX
%maxcore 6000
%moinp "pbe.qro"
%pal nprocs 16 end 

%casscf
 mult 6,4
 bweight 1,1
 nroots 1,24
 nel 5
 norb 5
end


*xyzfile 0 6 pbe.xyz

