%pal nprocs 1 end 

!PBE def2-TZVP OPT UNO
!SLOWCONV

*xyz 0 5 
 Au  6.80178744448104      5.54207868406046      7.61439855829191
 Au  8.83690996288426      5.84743816117562      5.73961408770388
 Au  7.44706324532768      8.12533800110644      4.75509533963631
 Au  5.48758923557024      7.88947611200323      6.60268121872863
 Au  10.19621774610739      8.00444051255911      4.65815517241651
 Au  11.03472072274347      7.57348563665948      7.24353725308877
 Au  9.43177680026026      5.64527586002455      8.42865491319822
 Au  7.36549837264211      7.51949525383495      9.90821558834749
 Au  5.58660593436586      9.55082868737978      8.93588511696898
 Au  6.98208611774852     10.24303795700295      6.59065340545225
 Au  10.04119309593736      8.03380519712060      9.76160572069454
 Au  8.31608765072937     10.10013888938710      9.04664416988345
 Au  4.83157197650535      6.83230114616440      9.07277322427926
 Au  9.76442041398288     10.02163857569527      6.64196719983042
 Fe  8.24576427071395      7.91270770582586      7.38152983147905
*

