%pal nprocs 16 end 

!PBE def2-TZVP OPT UNO
!SLOWCONV KDIIS 

%geom maxiter 300 end

*xyzfile 0 3 3.xyz 