%pal nprocs 4 end 

!PBE def2-TZVP OPT UNO
!SLOWCONV KDIIS 

%geom maxiter 300 end

*xyzfile 0 4 9.xyz 
