!PBE def2-TZVP VERYSLOWCONV

%pal nprocs 16 end 

*xyzfile 0 5 pbe.xyz

$new_job

!PBE def2-TZVP VERYSLOWCONV
 

%pal nprocs 16 end 

*xyzfile 0 3 pbe.xyz




