!R2SCAN def2-TZVP VERYSLOWCONV
!TRAH
%pal nprocs 6 end 

*xyzfile 0 5 pbe.xyz

$new_job

!R2SCAN def2-TZVP VERYSLOWCONV
!TRAH 

%pal nprocs 6 end 

*xyzfile 0 3 pbe.xyz




