%pal nprocs 16 end 

!PBE def2-TZVP OPT UNO
!KDIIS

%geom
  maxiter 400
end


*xyzfile 0 5 4-3.xyz 
