%pal nprocs 1 end 

!PBE def2-TZVP OPT UNO
!SLOWCONV

*xyz 0 3 
Au  6.89390120979644      6.07360748571219      5.23513562302615
Au  6.39042673811475      9.04231675953343      5.91688667481937
Au  8.78236988692296      7.97896308020377      4.75419396615442
Au  8.03424953125682      4.90121742274537      8.98996652611592
Au  10.33807587470007      8.72831863996447      7.03452632926852
Au  8.71679449774113     10.59316632617838      5.62313189200335
Au  9.28019928068161      6.08974635834033      6.71705052831460
Au  4.56326330231360      7.03192032984328      6.49980006510371
Au  9.36114742279191      7.40225207327828      9.24322269300216
Au  6.85091867273047      7.12386578860739     10.40874299280775
Au  5.35412103666950      8.89679440427299      8.66347246431356
Au  5.79958338841830      4.58560012471438      7.37453396608868
Au  4.51890820381478      6.28974455781078      9.21295466773755
Au  7.96856212006139      9.59757949860358      8.18940923674645
Fe  6.95888093398595      7.00037085019118      7.76673372449756
*
