!RI-B2PLYP def2-TZVP def2-TZVP/C
!RIJCOSX
%pal nprocs 16 end 

*xyzfile 0 5 pbe.xyz

$new_job

!RI-B2PLYP def2-TZVP def2-TZVP/C
!RIJCOSX
%pal nprocs 16 end 

*xyzfile 0 3 pbe.xyz




