!R2SCAN def2-TZVP SLOWCONV
!KDIIS

%scf
  AutoTRAHIter 200
  maxiter 400
end


%pal nprocs 16 end 

%scf 
  AutoTRAHIter 100
  maxiter 400
end

*xyzfile 0 5 pbe.xyz

$new_job

!R2SCAN def2-TZVP SLOWCONV
!KDIIS

%pal nprocs 16 end 

%scf
  AutoTRAHIter 100
  maxiter 400
end

*xyzfile 0 3 pbe.xyz




