%pal nprocs 1 end 

!PBE def2-TZVP OPT UNO
!SLOWCONV KDIIS 

%geom maxiter 300 end

*xyzfile 0 6 7.xyz 