%pal nprocs 16 end 

!PBE def2-TZVP OPT UNO
!KDIIS

*xyzfile 0 5 2-3.xyz 
