%pal nprocs 1 end 

!PBE def2-TZVP OPT UNO
!SLOWCONV

*xyzfile 0 3 3.xyz 