%pal nprocs 1 end 

!PBE def2-TZVP OPT UNO
!SLOWCONV

*xyz 0 6  
Au  8.46893095520713      9.33680295354644     10.01987950994661
Au  7.65059900303876      6.67304019069176     10.17065148192835
Au  10.11204504816618      7.45779021078883      8.84259198553681
Au  9.41292232365131      7.26834848078459      6.10224616155149
Au  6.15941651519092      4.97739984146915      8.59338202507115
Au  7.67540483750629      7.30958544539353      3.98102071678093
Au  7.39357643806983      9.49650646482459      5.66260898894082
Au  8.85517790788651      5.20958124306391      7.96253242975186
Au  6.94646933809931      5.46047714385246      5.96037074851701
Au  5.26053869254882      7.58399407739151      5.32269852778388
Au  7.12735355138989     10.83101100166099      8.13538044851819
Au  4.48707775301917      6.99287821109166      7.91728806350919
Au  4.91026395673949      9.64012557430028      7.12335878389382
Au  5.77042308606179      8.72556921654409      9.67890314295580
Au  9.55642211703875      9.74259181765301      7.38856004924858
Fe  7.18375581638543      7.60184223694251      7.65429804606495
*
