!R2SCAN def2-TZVP VERYSLOWCONV
!KDIIS
%scf
  AutoTRAHIter 200
  maxiter 400
end

%pal nprocs 6 end 

*xyzfile 0 5 pbe.xyz

$new_job

!R2SCAN def2-TZVP VERYSLOWCONV
!KDIIS
%scf
  AutoTRAHIter 200
  maxiter 400
end


%pal nprocs 6 end 

*xyzfile 0 3 pbe.xyz




