%pal nprocs 8 end 

!PBE def2-TZVP OPT UNO
!SLOWCONV KDIIS

%scf              
  AutoTRAHIter 400
  maxiter 800     
  DIISMaxEq 15    
end               


*xyz 0 3  
  Au  8.48774062881571      8.36597681938725      9.57824774672180
  Au  5.83035361753757      7.57613667400607      9.73090845821447
  Au  6.38385824442557      9.89092417190711      8.05880800666864
  Au  9.00358739371801      9.65847618726613      7.14116822929512
  Au  7.27227670974339     11.53248605021377      6.02152523982061
  Au  9.97198061540879      6.99609503035585      7.57114403391862
  Au  4.42124142891514      7.93509207103273      7.31368988705704
  Au  5.54354130963629      5.40068497944402      7.84466110249354
  Au  8.07292258292849      5.05004351142179      6.75577700051725
  Au  8.66445939063094      7.19257890074858      5.03233080669559
  Au  6.49944336569300     11.05456280031248      3.37829425423847
  Au  10.98804314565289      8.65730712139285      5.46288999545379
  Au  6.83512942559776      8.29094272160742      3.23957695451374
  Au  8.89328327276653      9.96318185793426      4.28659345373587
  Au  5.95005474196249      6.63414168542396      5.26268462004314
  Au  5.35544475733742      9.51497437748283      5.34944323423295
  Fe  7.22291540922991      7.41735219006278      7.48805960637938
* 


