!R2SCAN def2-TZVP VERYSLOWCONV

%scf
  AutoTRAHIter 400
  maxiter 800
end

%pal nprocs 6 end 

*xyzfile 0 5 pbe.xyz

$new_job

!R2SCAN def2-TZVP SLOWCONV
%scf
  AutoTRAHIter 800
  maxiter 1200
end


%pal nprocs 6 end 

*xyzfile 0 3 pbe.xyz




