!RI-B2PLYP def2-TZVP def2-TZVP/C
!RIJCOSX KDIIS
%pal nprocs 16 end 

%scf
  AutoTRAHIter 200
  maxiter 400
end



*xyzfile 0 5 pbe.xyz

$new_job

!RI-B2PLYP def2-TZVP def2-TZVP/C
!RIJCOSX KDIIS

%pal nprocs 16 end 
%scf
  AutoTRAHIter 200
  maxiter 400
end


*xyzfile 0 3 pbe.xyz




