%pal nprocs 16 end 

!PBE def2-TZVP OPT UNO
!SLOWCONV

*xyzfile 0 5 0-2.xyz 
