%pal nprocs 1 end 

!PBE def2-TZVP OPT UNO
!SLOWCONV

*xyzfile 0 6 9.xyz 