%pal nprocs 16 end 

!PBE def2-TZVP OPT UNO
!SLOWCONV

%geom
  maxiter 200
end

*xyzfile 0 5 5-4.xyz 
